datasets/2-dimensional/CL_09_25_06.vbp
2
947 985 
25
321 137 30
188 143 72
224 301 4
195 278 88
269 139 54
110 353 64
388 285 90
367 303 26
314 272 94
297 160 28
182 334 72
236 359 49
225 203 54
315 232 19
175 313 28
169 113 61
166 298 84
131 135 23
132 191 67
334 232 53
105 125 54
111 136 16
220 333 9
396 281 54
109 249 77
