datasets/2-dimensional/CL_09_25_06.txt
947 985 
0 30 321 137 
1 72 188 143 
2 4 224 301 
3 88 195 278 
4 54 269 139 
5 64 110 353 
6 90 388 285 
7 26 367 303 
8 94 314 272 
9 28 297 160 
10 72 182 334 
11 49 236 359 
12 54 225 203 
13 19 315 232 
14 28 175 313 
15 61 169 113 
16 84 166 298 
17 23 131 135 
18 67 132 191 
19 53 334 232 
20 54 105 125 
21 16 111 136 
22 9 220 333 
23 54 396 281 
24 77 109 249 
